Pt 
 1.0000000000000000
     3.9767709566612299    0.0000000000000000    0.0000000000000002
    -0.0000000000000002    3.9767709566612299    0.0000000000000002
     0.0000000000000000    0.0000000000000000    3.9767709566612299
   4
Cartesian
  0.0000000000000000  0.0000000000000000  0.0000000000000000
 -0.0000000000000001  1.9883854783306150  1.9883854783306152
  1.9883854783306150  0.0000000000000000  1.9883854783306152
  1.9883854783306147  1.9883854783306150  0.0000000000000002
