Pt 
 1.0000000000000000
     5.6240034213617394    0.0000000000000000    0.0000000000000000
     2.8120017106808697    4.8705298338698650    0.0000000000000000
     0.0000000000000000    0.0000000000000000   24.5919795646676924
  12
Cartesian
  0.0000000000000000  0.0000000000000000 10.0000000000000000
  1.4060008553404351  2.4352649169349325 10.0000000000000000
  2.8120017106808697  0.0000000000000000 10.0000000000000000
  4.2180025660213047  2.4352649169349325 10.0000000000000000
  5.6240034213617394  3.2470198892465771 12.2959897823338462
  4.2180025660213047  0.8117549723116446 12.2959897823338480
  2.8120017106808692  3.2470198892465771 12.2959897823338462
  1.4060008553404355  0.8117549723116445 12.2959897823338462
  2.8120017106808697  1.6235099446232890 14.5919795646676924
  4.2180025660213047  4.0587748615582218 14.5919795646676924
  5.6240034213617385  1.6235099446232886 14.5919795646676924
  7.0300042767021740  4.0587748615582209 14.5919795646676924
