 V Pt  V Pt 
 1.0000000000000000
     3.8925140708437533    0.0000000000000000    0.0000000000000000
     0.0000000000000004    7.9384635980858933    0.0000000000000000
     0.0000000000000000    0.0000000000000000   25.8387711062656322
   2   6   2   6
Cartesian
  0.0000000000000000  0.0000000000000000 10.0000000000000000
  1.9462570354218769  3.9692317990429475 11.9462570354218762
  0.0000000000000003  5.9538476985644202 11.9462570354218762
  1.9462570354218769  5.9538476985644202 10.0000000000000000
  1.9462570354218767  0.0000000000000001 11.9462570354218762
  1.9462570354218767  1.9846158995214738 10.0000000000000000
  0.0000000000000001  1.9846158995214738 11.9462570354218762
  0.0000000000000002  3.9692317990429467 10.0000000000000000
  0.0000000000000000  0.0000000000000002 13.8925140708437524
  1.9462570354218767  3.9692317990429475 15.8387711062656287
  3.8925140708437533  5.9538476985644202 15.8387711062656305
  1.9462570354218767  5.9538476985644202 13.8925140708437524
  1.9462570354218764  0.0000000000000003 15.8387711062656287
  1.9462570354218764  1.9846158995214742 13.8925140708437524
  3.8925140708437529  1.9846158995214742 15.8387711062656305
  0.0000000000000002  3.9692317990429467 13.8925140708437524
